\ Model '(TOY_TEST)'_copy
\ LP format - for model browsing. Use MPS format to capture full model detail.
Minimize
 
Subject To
 R185:
   - 0.5 Block_attention_output.s_cc[1,0.999666629625514,0.999666629625514]
   <= -1
Bounds
Binaries
 Block_attention_output.s_cc[1,0.999666629625514,0.999666629625514]
End
